1874100
58,35,14,67,52,36,34,50,61,38,43,9,56,32,51,17,13,21,30,37,6,42,45,33,54,25,66,63,10,65,5,24,29,40,59,18,48,22,28,55,39,4,31,41,20,2,23,60,11,0,53,12,46,64,19,3,47,1,44,26,8,57,16,7,49,27,15,62